0000000000000000
0000000000000000
0000010000000000
0000010000000000
0000010000000000
0000011111000000
0000000001100000
0000000000100000
0000000000100000
0000000000100000
0000000001100000
0000000011000000
0000000110000000
0000011100000000
0000000000000000
0000000000000000
